c Nemesis formula in 6CNF in accordance with DIMACS CNF format:
c    Filename: MCNC/c432/c432.tdl
c    Formula number 138
c    1266 variables (range: 2 - 1267)
c    1000 clauses
c
c p cnf 1267 1000
p cnf 421 1000
73	0
38	0
421	0
73	0
74	0
-72	0
141	-142	0
-141	142	0
72	74	0
-72	-74	0
-417	-158	0
72	141	0
-72	-141	0
417	-74	0
-417	74	0
417	-142	0
-417	142	0
74	-142	0
-74	142	0
-39	-419	0
37	-419	0
39	-420	0
-37	-420	0
-420	418	0
-419	418	0
-79	-37	0
-67	-37	0
-68	38	0
-68	-79	0
-79	-39	0
-69	-39	0
-76	-67	0
-71	-67	0
-72	-67	0
-138	-67	0
-76	-69	0
-71	-69	0
-74	-69	0
-138	-69	0
75	-138	0
-75	138	0
75	-139	0
-75	139	0
75	-146	0
-75	146	0
-298	-75	0
-294	-75	0
299	294	0
-299	-294	0
15	-302	0
-15	302	0
15	-303	0
-15	303	0
53	-93	0
-53	93	0
53	-94	0
-53	94	0
53	-98	0
-53	98	0
53	-102	0
-53	102	0
53	-105	0
-53	105	0
53	-119	0
-53	119	0
53	-121	0
-53	121	0
53	-124	0
-53	124	0
53	-129	0
-53	129	0
53	-160	0
-53	160	0
53	-194	0
-53	194	0
53	-208	0
-53	208	0
53	-231	0
-53	231	0
53	-237	0
-53	237	0
53	-291	0
-53	291	0
53	-301	0
-53	301	0
53	-315	0
-53	315	0
53	-328	0
-53	328	0
53	-330	0
-53	330	0
53	-345	0
-53	345	0
53	-363	0
-53	363	0
60	53	0
250	53	0
163	53	0
169	53	0
175	169	0
-175	-169	0
104	-174	0
-104	174	0
104	-175	0
-104	175	0
-183	-104	0
-178	-104	0
-180	-104	0
171	-179	0
-171	179	0
171	-180	0
-171	180	0
171	-187	0
-171	187	0
171	-190	0
-171	190	0
34	171	0
-34	-171	0
12	-177	0
-12	177	0
12	-178	0
-12	178	0
176	-183	0
-176	183	0
176	-184	0
-176	184	0
-258	-407	0
182	-407	0
258	-408	0
-182	-408	0
-408	176	0
-407	176	0
42	-80	0
-42	80	0
42	-81	0
-42	81	0
42	-84	0
-42	84	0
42	-101	0
-42	101	0
42	-112	0
-42	112	0
42	-159	0
-42	159	0
42	-182	0
-42	182	0
42	-205	0
-42	205	0
42	-228	0
-42	228	0
42	-246	0
-42	246	0
42	-278	0
-42	278	0
42	-290	0
-42	290	0
42	-300	0
-42	300	0
42	-308	0
-42	308	0
42	-329	0
-42	329	0
42	-334	0
-42	334	0
42	-342	0
-42	342	0
42	-370	0
-42	370	0
42	-389	0
-42	389	0
273	42	0
254	42	0
43	42	0
265	42	0
332	265	0
-332	-265	0
266	-332	0
-266	332	0
266	-333	0
-266	333	0
-354	-266	0
-355	-266	0
268	-271	0
-268	271	0
268	-272	0
-268	272	0
268	-288	0
-268	288	0
268	-355	0
-268	355	0
26	268	0
-26	-268	0
7	-353	0
-7	353	0
7	-354	0
-7	354	0
-110	-43	0
-46	-43	0
41	-45	0
-41	45	0
41	-46	0
-41	46	0
-206	-41	0
-198	-41	0
191	-198	0
-191	198	0
191	-199	0
-191	199	0
201	191	0
-201	-191	0
32	-201	0
-32	201	0
32	-202	0
-32	202	0
32	-215	0
-32	215	0
5	-206	0
-5	206	0
5	-207	0
-5	207	0
44	-110	0
-44	110	0
44	-111	0
-44	111	0
-343	-44	0
-340	-44	0
335	-338	0
-335	338	0
335	-339	0
-335	339	0
335	-340	0
-335	340	0
335	-352	0
-335	352	0
9	335	0
-9	-335	0
21	-343	0
-21	343	0
21	-344	0
-21	344	0
-257	-254	0
-255	-254	0
-259	-254	0
181	-258	0
-181	258	0
181	-259	0
-181	259	0
-189	-181	0
-190	-181	0
25	-188	0
-25	188	0
25	-189	0
-25	189	0
316	255	0
309	255	0
317	255	0
387	317	0
-387	-317	0
376	-387	0
-376	387	0
376	-388	0
-376	388	0
-385	-376	0
-386	-376	0
377	-382	0
-377	382	0
377	-383	0
-377	383	0
377	-386	0
-377	386	0
377	-394	0
-377	394	0
19	377	0
-19	-377	0
17	-384	0
-17	384	0
17	-385	0
-17	385	0
311	309	0
-311	-309	0
307	-310	0
-307	310	0
307	-311	0
-307	311	0
-374	-307	0
-375	-307	0
222	-371	0
-222	371	0
222	-372	0
-222	372	0
222	-375	0
-222	375	0
368	222	0
-368	-222	0
35	-367	0
-35	367	0
35	-368	0
-35	368	0
30	-373	0
-30	373	0
30	-374	0
-30	374	0
319	316	0
-319	-316	0
83	-318	0
-83	318	0
83	-319	0
-83	319	0
-305	-83	0
-306	-83	0
86	-91	0
-86	91	0
86	-92	0
-86	92	0
86	-155	0
-86	155	0
86	-306	0
-86	306	0
28	86	0
-28	-86	0
4	-304	0
-4	304	0
4	-305	0
-4	305	0
224	-256	0
-224	256	0
224	-257	0
-224	257	0
-229	-224	0
-226	-224	0
219	-225	0
-219	225	0
219	-226	0
-219	226	0
240	219	0
-240	-219	0
6	-240	0
-6	240	0
6	-241	0
-6	241	0
6	-245	0
-6	245	0
10	-229	0
-10	229	0
10	-230	0
-10	230	0
276	273	0
-276	-273	0
274	-276	0
-274	276	0
274	-277	0
-274	277	0
-357	-274	0
-358	-274	0
279	-282	0
-279	282	0
279	-283	0
-279	283	0
279	-298	0
-279	298	0
279	-358	0
-279	358	0
27	279	0
-27	-279	0
11	-356	0
-11	356	0
11	-357	0
-11	357	0
-167	-163	0
-313	-163	0
-263	-163	0
165	-263	0
-165	263	0
165	-264	0
-165	264	0
165	-327	0
-165	327	0
-390	-165	0
-381	-165	0
-383	-165	0
18	-380	0
-18	380	0
18	-381	0
-18	381	0
379	-390	0
-379	390	0
379	-391	0
-379	391	0
-388	-395	0
389	-395	0
388	-396	0
-389	-396	0
-396	379	0
-395	379	0
164	-313	0
-164	313	0
164	-314	0
-164	314	0
-322	-164	0
-361	-164	0
-371	-164	0
22	-361	0
-22	361	0
22	-362	0
-22	362	0
221	-322	0
-221	322	0
221	-323	0
-221	323	0
-310	-401	0
308	-401	0
310	-402	0
-308	-402	0
-402	221	0
-401	221	0
85	-166	0
-85	166	0
85	-167	0
-85	167	0
-89	-85	0
-161	-85	0
-91	-85	0
23	-161	0
-23	161	0
23	-162	0
-23	162	0
82	-89	0
-82	89	0
82	-90	0
-82	90	0
-318	-413	0
84	-413	0
318	-414	0
-84	-414	0
-414	82	0
-413	82	0
168	-250	0
-168	250	0
168	-251	0
-168	251	0
235	168	0
-235	-168	0
220	-235	0
-220	235	0
220	-236	0
-220	236	0
-248	-220	0
-232	-220	0
-225	-220	0
33	-232	0
-33	232	0
33	-233	0
-33	233	0
223	-248	0
-223	248	0
223	-249	0
-223	249	0
-256	-405	0
246	-405	0
256	-406	0
-246	-406	0
-406	223	0
-405	223	0
-65	-60	0
-122	-60	0
-117	-60	0
-127	-60	0
63	-127	0
-63	127	0
63	-128	0
-63	128	0
63	-193	0
-63	193	0
-197	-63	0
-209	-63	0
-199	-63	0
29	-209	0
-29	209	0
29	-210	0
-29	210	0
40	-196	0
-40	196	0
40	-197	0
-40	197	0
-45	-415	0
80	-415	0
45	-416	0
-80	-416	0
-416	40	0
-415	40	0
62	-117	0
-62	117	0
62	-118	0
-62	118	0
62	-120	0
-62	120	0
-270	-62	0
-292	-62	0
-272	-62	0
31	-292	0
-31	292	0
31	-293	0
-31	293	0
267	-269	0
-267	269	0
267	-270	0
-267	270	0
-333	-397	0
334	-397	0
333	-398	0
-334	-398	0
-398	267	0
-397	267	0
61	-122	0
-61	122	0
61	-123	0
-61	123	0
-336	-61	0
-346	-61	0
-338	-61	0
20	-346	0
-20	346	0
20	-347	0
-20	347	0
109	-336	0
-109	336	0
109	-337	0
-109	337	0
-111	-409	0
112	-409	0
111	-410	0
-112	-410	0
-410	109	0
-409	109	0
52	-64	0
-52	64	0
52	-65	0
-52	65	0
-280	-52	0
-302	-52	0
-282	-52	0
275	-280	0
-275	280	0
275	-281	0
-275	281	0
-277	-403	0
278	-403	0
277	-404	0
-278	-404	0
-404	275	0
-403	275	0
2	-296	0
-2	296	0
2	-297	0
-2	297	0
58	-172	0
-58	172	0
58	-173	0
-58	173	0
58	-218	0
-58	218	0
58	-285	0
-58	285	0
58	-295	0
-58	295	0
58	-349	0
-58	349	0
58	-360	0
-58	360	0
58	-378	0
-58	378	0
49	58	0
59	58	0
54	58	0
-57	-54	0
-196	-57	0
-195	-57	0
213	195	0
202	195	0
200	-213	0
-200	213	0
200	-214	0
-200	214	0
14	200	0
-14	-200	0
126	125	0
-126	-125	0
-128	-126	0
-129	-126	0
193	192	0
194	192	0
-337	-56	0
-350	-56	0
-339	-56	0
8	-350	0
-8	350	0
8	-351	0
-8	351	0
-95	-59	0
-87	-59	0
-96	-59	0
321	96	0
331	321	0
-391	-331	0
-393	-331	0
-394	-331	0
3	-392	0
-3	392	0
3	-393	0
-3	393	0
-327	-326	0
-328	-326	0
-261	-260	0
-262	-260	0
78	-252	0
-78	252	0
78	-253	0
-78	253	0
78	-262	0
-78	262	0
98	78	0
-98	-78	0
264	261	0
-264	-261	0
364	320	0
367	320	0
366	364	0
-366	-364	0
1	-365	0
-1	365	0
1	-366	0
-1	366	0
-314	-399	0
315	-399	0
314	-400	0
-315	-400	0
-400	312	0
-399	312	0
-88	-87	0
-90	-87	0
-153	-87	0
-92	-87	0
16	-153	0
-16	153	0
16	-154	0
-16	154	0
-166	-411	0
94	-411	0
166	-412	0
-94	-412	0
-412	88	0
-411	88	0
106	95	0
-106	-95	0
-108	-106	0
-249	-108	0
-242	-108	0
244	242	0
245	242	0
238	-243	0
-238	243	0
238	-244	0
-238	244	0
13	238	0
-13	-238	0
251	247	0
253	247	0
236	234	0
237	234	0
-184	-107	0
-186	-107	0
-187	-107	0
36	-185	0
-36	185	0
36	-186	0
-36	186	0
-47	-49	0
48	47	0
-48	-47	0
115	48	0
-269	-115	0
-286	-115	0
-271	-115	0
24	-286	0
-24	286	0
24	-287	0
-24	287	0
-120	-114	0
-121	-114	0
116	113	0
-116	-113	0
118	116	0
119	116	0
-281	-51	0
-296	-51	0
-283	-51	0
216	72	0
217	72	0
66	-132	0
-66	132	0
66	-133	0
-66	133	0
66	-135	0
-66	135	0
66	-217	0
-66	217	0
203	66	0
-203	-66	0
-341	-203	0
348	341	0
-348	-341	0
-352	-348	0
131	-136	0
-131	136	0
131	-137	0
-131	137	0
131	-140	0
-131	140	0
131	-147	0
-131	147	0
131	-216	0
-131	216	0
289	131	0
284	131	0
-288	-284	0
145	71	0
141	71	0
148	71	0
143	-148	0
-143	148	0
143	-149	0
-143	149	0
151	143	0
-151	-143	0
134	-150	0
-134	150	0
134	-151	0
-134	151	0
-227	-134	0
241	227	0
97	-211	0
-97	211	0
97	-212	0
-97	212	0
97	-239	0
-97	239	0
218	97	0
-218	-97	0
-158	-141	0
99	-157	0
-99	157	0
99	-158	0
-99	158	0
-100	-99	0
170	100	0
-170	-100	0
-179	-170	0
-155	-152	0
130	-144	0
-130	144	0
130	-145	0
-130	145	0
215	130	0
204	130	0
70	-76	0
-70	76	0
70	-77	0
-70	77	0
-324	-70	0
325	324	0
-325	-324	0
-382	-325	0
-369	-79	0
-372	-79	0
359	369	0
-359	-369	0
-418	421	0
-421	418	0
-158	-217	-216	0
-417	-152	-216	0
158	156	216	0
158	152	216	0
-417	-156	-217	0
158	156	217	0
158	152	217	0
419	39	-37	0
420	-39	37	0
-418	420	419	0
37	79	67	0
-38	37	39	0
-38	-37	-39	0
39	79	69	0
-68	67	69	0
-68	-67	-69	0
-297	-295	-75	0
-356	-300	-299	0
-303	-301	-299	0
301	300	299	0
303	300	299	0
301	356	299	0
303	356	299	0
407	258	-182	0
408	-258	182	0
-176	408	407	0
266	354	355	0
43	110	46	0
41	206	198	0
44	343	340	0
181	189	190	0
376	385	386	0
307	374	375	0
83	305	306	0
224	229	226	0
274	357	358	0
395	388	-389	0
396	-388	389	0
-379	396	395	0
401	310	-308	0
402	-310	308	0
-221	402	401	0
413	318	-84	0
414	-318	84	0
-82	414	413	0
405	256	-246	0
406	-256	246	0
-223	406	405	0
415	45	-80	0
416	-45	80	0
-40	416	415	0
397	333	-334	0
398	-333	334	0
-267	398	397	0
409	111	-112	0
410	-111	112	0
-109	410	409	0
403	277	-278	0
404	-277	278	0
-275	404	403	0
-56	-55	-54	0
57	55	54	0
57	56	54	0
-125	-192	-57	0
-195	-213	-202	0
126	128	129	0
-192	-193	-194	0
124	123	55	0
-124	-123	55	0
-124	123	-55	0
124	-123	-55	0
-321	-312	-96	0
-321	-323	-96	0
-321	-320	-96	0
326	260	321	0
-331	-260	-321	0
-331	-326	-321	0
326	327	328	0
260	261	262	0
-320	-364	-367	0
399	314	-315	0
400	-314	315	0
-312	400	399	0
411	166	-94	0
412	-166	94	0
-88	412	411	0
-107	-103	-106	0
108	103	106	0
108	107	106	0
-247	-234	-108	0
-242	-244	-245	0
-247	-251	-253	0
-234	-236	-237	0
105	174	103	0
-105	-174	103	0
-105	174	-103	0
105	-174	-103	0
-51	-50	-49	0
47	50	49	0
47	51	49	0
114	113	48	0
-115	-113	-48	0
-115	-114	-48	0
114	120	121	0
-116	-118	-119	0
93	64	50	0
-93	-64	50	0
-93	64	-50	0
93	-64	-50	0
-72	-216	-217	0
-344	-342	-203	0
-347	-345	-203	0
-351	-349	-348	0
352	349	348	0
352	351	348	0
-131	-289	-284	0
-287	-285	-284	0
288	285	284	0
288	287	284	0
-353	-290	-289	0
-293	-291	-289	0
291	290	289	0
293	290	289	0
291	353	289	0
293	353	289	0
-230	-228	-134	0
-233	-231	-134	0
243	239	227	0
-241	-239	-227	0
-241	-243	-227	0
-152	-156	-141	0
158	156	141	0
158	152	141	0
-188	-101	-99	0
-177	-102	-99	0
-185	-173	-170	0
179	173	170	0
179	185	170	0
-154	-172	-152	0
155	172	152	0
155	154	152	0
-304	-159	-156	0
-162	-160	-156	0
160	159	156	0
162	159	156	0
160	304	156	0
162	304	156	0
214	212	130	0
-207	-205	-204	0
-210	-208	-204	0
208	205	204	0
210	205	204	0
208	207	204	0
210	207	204	0
-384	-329	-70	0
-380	-330	-70	0
-392	-378	-325	0
382	378	325	0
382	392	325	0
-370	-373	-79	0
-360	-365	-359	0
-363	-362	-359	0
362	365	359	0
363	365	359	0
362	360	359	0
363	360	359	0
-152	-156	-217	-216	0
417	158	217	216	0
417	158	152	156	0
294	298	295	75	0
294	298	297	75	0
104	183	178	180	0
254	257	255	259	0
-255	-316	-309	-317	0
163	167	313	263	0
165	390	381	383	0
164	322	361	371	0
85	89	161	91	0
220	248	232	225	0
63	197	209	199	0
62	270	292	272	0
61	336	346	338	0
52	280	302	282	0
-58	-49	-59	-54	0
195	196	192	57	0
195	196	125	57	0
56	337	350	339	0
59	95	87	96	0
320	323	312	96	0
331	391	393	394	0
242	249	234	108	0
242	249	247	108	0
107	184	186	187	0
115	269	286	271	0
51	281	296	283	0
341	345	342	203	0
341	347	342	203	0
341	345	344	203	0
341	347	344	203	0
-71	-145	-141	-148	0
227	231	228	134	0
227	233	228	134	0
227	231	230	134	0
227	233	230	134	0
100	102	101	99	0
100	177	101	99	0
100	102	188	99	0
100	177	188	99	0
-204	-215	-212	-130	0
-204	-215	-214	-130	0
324	330	329	70	0
324	380	329	70	0
324	330	384	70	0
324	380	384	70	0
372	369	373	79	0
372	369	370	79	0
67	76	71	72	138	0
69	76	71	74	138	0
-53	-60	-250	-163	-169	0
-42	-273	-254	-43	-265	0
60	65	122	117	127	0
87	88	90	153	92	0
